&CONTROL
  calculation='scf',
  prefix='calc',
  pseudo_dir='../.',
  outdir='.',
  tprnfor=.true.,
/
&SYSTEM
  ibrav=0,
  celldm(1)=1.0,
  nat=96,
  ntyp=2,
  ecutwfc=80,
  occupations='smearing',
  smearing='gauss',
  degauss=0.003674932247495664d00,
  x_gamma_extrapolation=FALSE,
  input_dft='HSE',
  edir=3,
  emaxpos=0.0d00,
  eopreg=0.025d00,
  eamp=0.0d00,
  nosym=.true.,
  noinv=.false.,
  nosym_evc=.false.,
  no_t_rev=.false.,
/
&ELECTRONS
  conv_thr=0.01,
  electron_maxstep=750,
  mixing_mode='TF',
  mixing_beta=0.3
/
&IONS
/
&CELL
/
CELL_PARAMETERS alat
    17.5236981730929     0.000000000000000d0     0.000000000000000d0
    0.000000000000000d0     11.2151152043688     0.000000000000000d0
    0.000000000000000d0     0.000000000000000d0    44.981482549346488
ATOMIC_SPECIES
O 15.999d00 08_O_6_1.2_1.4_pbe_n_v1.0.upf
Ti 47.867d00 22_Ti_12_2.0_2.8_pbe_n_v1.0.upf
ATOMIC_POSITIONS {crystal}
O 0.152478635396609	0	0.218524465189178
O 0.3475213640642	0	0.294505736799351
O 0.402478631999702	0.250000000505495	0.197111761837762
O 0.097521374901951	0.250000002021978	0.121130525727054
O 0.152478635396609	0	0.413312377680377
O 0.3475213640642	0	0.48929364929055
O 0.402478631999702	0.250000000505495	0.39189967432896
O 0.097521374901951	0.250000002021978	0.315918438218253
O 0.152478635396609	0	0.608100290171575
O 0.3475213640642	0	0.684081561781747
O 0.402478631999702	0.250000000505495	0.586687586820159
O 0.097521374901951	0.250000002021978	0.51070635070945
O 0.152478635396609	0	0.802888202662774
O 0.3475213640642	0	0.878869474272946
O 0.402478631999702	0.250000000505495	0.781475499311356
O 0.097521374901951	0.250000002021978	0.705494263200649
O 0.152478635396609	0.5	0.218524465189178
O 0.3475213640642	0.5	0.294505736799351
O 0.402478631999702	0.750000000505495	0.197111761837762
O 0.097521374901951	0.750000002021978	0.121130525727054
O 0.152478635396609	0.5	0.413312377680377
O 0.3475213640642	0.5	0.48929364929055
O 0.402478631999702	0.750000000505495	0.39189967432896
O 0.097521374901951	0.750000002021978	0.315918438218253
O 0.152478635396609	0.5	0.608100290171575
O 0.3475213640642	0.5	0.684081561781747
O 0.402478631999702	0.750000000505495	0.586687586820159
O 0.097521374901951	0.750000002021978	0.51070635070945
O 0.152478635396609	0.5	0.802888202662774
O 0.3475213640642	0.5	0.878869474272946
O 0.402478631999702	0.750000000505495	0.781475499311356
O 0.097521374901951	0.750000002021978	0.705494263200649
O 0.652478635396609	0	0.218524465189178
O 0.8475213640642	0	0.294505736799351
O 0.902478631999702	0.250000000505495	0.197111761837762
O 0.597521374901951	0.250000002021978	0.121130525727054
O 0.652478635396609	0	0.413312377680377
O 0.8475213640642	0	0.48929364929055
O 0.902478631999702	0.250000000505495	0.39189967432896
O 0.597521374901951	0.250000002021978	0.315918438218253
O 0.652478635396609	0	0.608100290171575
O 0.8475213640642	0	0.684081561781747
O 0.902478631999702	0.250000000505495	0.586687586820159
O 0.597521374901951	0.250000002021978	0.51070635070945
O 0.652478635396609	0	0.802888202662774
O 0.8475213640642	0	0.878869474272946
O 0.902478631999702	0.250000000505495	0.781475499311356
O 0.597521374901951	0.250000002021978	0.705494263200649
O 0.652478635396609	0.5	0.218524465189178
O 0.8475213640642	0.5	0.294505736799351
O 0.902478631999702	0.750000000505495	0.197111761837762
O 0.597521374901951	0.750000002021978	0.121130525727054
O 0.652478635396609	0.5	0.413312377680377
O 0.8475213640642	0.5	0.48929364929055
O 0.902478631999702	0.750000000505495	0.39189967432896
O 0.597521374901951	0.750000002021978	0.315918438218253
O 0.652478635396609	0.5	0.608100290171575
O 0.8475213640642	0.5	0.684081561781747
O 0.902478631999702	0.750000000505495	0.586687586820159
O 0.597521374901951	0.750000002021978	0.51070635070945
O 0.652478635396609	0.5	0.802888202662774
O 0.8475213640642	0.5	0.878869474272946
O 0.902478631999702	0.750000000505495	0.781475499311356
O 0.597521374901951	0.750000002021978	0.705494263200649
Ti 0	0	0.159121144979727
Ti 0.249999995093357	0.250000001516484	0.256515103052814
Ti 0	0	0.353909057470926
Ti 0.249999995093357	0.250000001516484	0.451303015544012
Ti 0	0	0.548696969962123
Ti 0.249999995093357	0.250000001516484	0.646090928035211
Ti 0	0	0.743484882453322
Ti 0.249999995093357	0.250000001516484	0.840878840526408
Ti 0	0.5	0.159121144979727
Ti 0.249999995093357	0.750000001516484	0.256515103052814
Ti 0	0.5	0.353909057470926
Ti 0.249999995093357	0.750000001516484	0.451303015544012
Ti 0	0.5	0.548696969962123
Ti 0.249999995093357	0.750000001516484	0.646090928035211
Ti 0	0.5	0.743484882453322
Ti 0.249999995093357	0.750000001516484	0.840878840526408
Ti 0.5	0	0.159121144979727
Ti 0.749999995093357	0.250000001516484	0.256515103052814
Ti 0.5	0	0.353909057470926
Ti 0.749999995093357	0.250000001516484	0.451303015544012
Ti 0.5	0	0.548696969962123
Ti 0.749999995093357	0.250000001516484	0.646090928035211
Ti 0.5	0	0.743484882453322
Ti 0.749999995093357	0.250000001516484	0.840878840526408
Ti 0.5	0.5	0.159121144979727
Ti 0.749999995093357	0.750000001516484	0.256515103052814
Ti 0.5	0.5	0.353909057470926
Ti 0.749999995093357	0.750000001516484	0.451303015544012
Ti 0.5	0.5	0.548696969962123
Ti 0.749999995093357	0.750000001516484	0.646090928035211
Ti 0.5	0.5	0.743484882453322
Ti 0.749999995093357	0.750000001516484	0.840878840526408
K_POINTS automatic
2 2 1 1 1 0