&CONTROL
  calculation='scf',
  prefix='calc',
  pseudo_dir='../.',
  outdir='.',
  tprnfor=.true.,
  verbosity='high',
/
&SYSTEM
  ibrav=0,
  celldm(1)=1,
  nat=72,
  ntyp=1,
  noncolin=.true.,
  lspinorb=.true.,
  ecutwfc=80,
  occupations='smearing',
  smearing='fermi-dirac',
  degauss=0.002,
  input_dft='pbe',
  nbnd=1650,
  nosym=.true.,
  starting_magnetization(1) = 0.0
/
&ELECTRONS
  conv_thr=0.01,
  diagonalization='cg',
  electron_maxstep=500,
  startingwfc='random',
  mixing_mode='TF',
  mixing_beta=0.2
/
&IONS
/
&CELL
/
CELL_PARAMETERS alat
 33.951919980244 0.0 0.0
 0.0 33.951919980244 0.0
 0.0 0.0 15.4201651868293
ATOMIC_SPECIES
Au 197.0 Au_FR.upf
ATOMIC_POSITIONS bohr
Au 7.33835675	7.33835675	1.92752065
Au 7.33835675	11.19339805	5.78256195
Au 11.19339805	7.33835675	5.78256195
Au 11.19339805	11.19339805	1.92752065
Au 7.33835675	15.04843935	1.92752065
Au 7.33835675	18.90348065	5.78256195
Au 11.19339805	15.04843935	5.78256195
Au 11.19339805	18.90348065	1.92752065
Au 7.33835675	22.75852195	1.92752065
Au 7.33835675	26.61356325	5.78256195
Au 11.19339805	22.75852195	5.78256195
Au 11.19339805	26.61356325	1.92752065
Au 15.04843935	7.33835675	1.92752065
Au 15.04843935	11.19339805	5.78256195
Au 18.90348065	7.33835675	5.78256195
Au 18.90348065	11.19339805	1.92752065
Au 15.04843935	15.04843935	1.92752065
Au 15.04843935	18.90348065	5.78256195
Au 18.90348065	15.04843935	5.78256195
Au 18.90348065	18.90348065	1.92752065
Au 15.04843935	22.75852195	1.92752065
Au 15.04843935	26.61356325	5.78256195
Au 18.90348065	22.75852195	5.78256195
Au 18.90348065	26.61356325	1.92752065
Au 22.75852195	7.33835675	1.92752065
Au 22.75852195	11.19339805	5.78256195
Au 26.61356325	7.33835675	5.78256195
Au 26.61356325	11.19339805	1.92752065
Au 22.75852195	15.04843935	1.92752065
Au 22.75852195	18.90348065	5.78256195
Au 26.61356325	15.04843935	5.78256195
Au 26.61356325	18.90348065	1.92752065
Au 22.75852195	22.75852195	1.92752065
Au 22.75852195	26.61356325	5.78256195
Au 26.61356325	22.75852195	5.78256195
Au 26.61356325	26.61356325	1.92752065
Au 7.33835675	7.33835675	9.63760325
Au 7.33835675	11.19339805	13.49264455
Au 11.19339805	7.33835675	13.49264455
Au 11.19339805	11.19339805	9.63760325
Au 7.33835675	15.04843935	9.63760325
Au 7.33835675	18.90348065	13.49264455
Au 11.19339805	15.04843935	13.49264455
Au 11.19339805	18.90348065	9.63760325
Au 7.33835675	22.75852195	9.63760325
Au 7.33835675	26.61356325	13.49264455
Au 11.19339805	22.75852195	13.49264455
Au 11.19339805	26.61356325	9.63760325
Au 15.04843935	7.33835675	9.63760325
Au 15.04843935	11.19339805	13.49264455
Au 18.90348065	7.33835675	13.49264455
Au 18.90348065	11.19339805	9.63760325
Au 15.04843935	15.04843935	9.63760325
Au 15.04843935	18.90348065	13.49264455
Au 18.90348065	15.04843935	13.49264455
Au 18.90348065	18.90348065	9.63760325
Au 15.04843935	22.75852195	9.63760325
Au 15.04843935	26.61356325	13.49264455
Au 18.90348065	22.75852195	13.49264455
Au 18.90348065	26.61356325	9.63760325
Au 22.75852195	7.33835675	9.63760325
Au 22.75852195	11.19339805	13.49264455
Au 26.61356325	7.33835675	13.49264455
Au 26.61356325	11.19339805	9.63760325
Au 22.75852195	15.04843935	9.63760325
Au 22.75852195	18.90348065	13.49264455
Au 26.61356325	15.04843935	13.49264455
Au 26.61356325	18.90348065	9.63760325
Au 22.75852195	22.75852195	9.63760325
Au 22.75852195	26.61356325	13.49264455
Au 26.61356325	22.75852195	13.49264455
Au 26.61356325	26.61356325	9.63760325
K_POINTS automatic
1 1 4 0 0 1