&CONTROL
  calculation='scf',
  prefix='calc',
  pseudo_dir='../.',
  outdir='.',
  tprnfor=.true.,
  verbosity='high',
  tstress=.false.
/
&SYSTEM
  ibrav=0,
  celldm(1)=1.0,
  nspin=2,
  nat=376,
  ntyp=3,
  ecutwfc=100d00,
  occupations='smearing',
  smearing='fermi-dirac',
  degauss=0.002,
  input_dft='scan',
  nbnd=1619,
  nosym=.true.
  starting_magnetization(1) = 1.0
/
&ELECTRONS
  conv_thr=10.0,
  diagonalization='paro',
  electron_maxstep=500,
  startingwfc='random',
  mixing_mode='TF',
  mixing_beta=0.5
/
CELL_PARAMETERS alat
 0 30.4111420019307 0
 28.8378100702704 0 0
 0 -17.23674183126 -29.6328328086972
ATOMIC_SPECIES
Ni 59 Ni.UPF
C 12 C.UPF
O 16 O.UPF
ATOMIC_POSITIONS crystal
Ni 0	0.166666666666667	0.166666666666667
Ni 0	0	0
Ni 0	0.5	0.166666666666667
Ni 0	0.333333333333333	0
Ni 0	0.833333333333333	0.166666666666667
Ni 0	0.666666666666667	0
Ni 0.333333333333333	0.166666666666667	0.166666666666667
Ni 0.333333333333333	0	0
Ni 0.333333333333333	0.5	0.166666666666667
Ni 0.333333333333333	0.333333333333333	0
Ni 0.333333333333333	0.833333333333333	0.166666666666667
Ni 0.333333333333333	0.666666666666667	0
Ni 0.666666666666667	0.166666666666667	0.166666666666667
Ni 0.666666666666667	0	0
Ni 0.666666666666667	0.5	0.166666666666667
Ni 0.666666666666667	0.333333333333333	0
Ni 0.666666666666667	0.833333333333333	0.166666666666667
Ni 0.666666666666667	0.666666666666667	0
Ni 0	0.166666666666667	0.5
Ni 0	0	0.333333333333333
Ni 0	0.5	0.5
Ni 0	0.333333333333333	0.333333333333333
Ni 0	0.833333333333333	0.5
Ni 0	0.666666666666667	0.333333333333333
Ni 0.333333333333333	0.166666666666667	0.5
Ni 0.333333333333333	0	0.333333333333333
Ni 0.333333333333333	0.5	0.5
Ni 0.333333333333333	0.333333333333333	0.333333333333333
Ni 0.333333333333333	0.833333333333333	0.5
Ni 0.333333333333333	0.666666666666667	0.333333333333333
Ni 0.666666666666667	0.166666666666667	0.5
Ni 0.666666666666667	0	0.333333333333333
Ni 0.666666666666667	0.5	0.5
Ni 0.666666666666667	0.333333333333333	0.333333333333333
Ni 0.666666666666667	0.833333333333333	0.5
Ni 0.666666666666667	0.666666666666667	0.333333333333333
Ni 0	0.166666666666667	0.833333333333333
Ni 0	0	0.666666666666667
Ni 0	0.5	0.833333333333333
Ni 0	0.333333333333333	0.666666666666667
Ni 0	0.833333333333333	0.833333333333333
Ni 0	0.666666666666667	0.666666666666667
Ni 0.333333333333333	0.166666666666667	0.833333333333333
Ni 0.333333333333333	0	0.666666666666667
Ni 0.333333333333333	0.5	0.833333333333333
Ni 0.333333333333333	0.333333333333333	0.666666666666667
Ni 0.333333333333333	0.833333333333333	0.833333333333333
Ni 0.333333333333333	0.666666666666667	0.666666666666667
Ni 0.666666666666667	0.166666666666667	0.833333333333333
Ni 0.666666666666667	0	0.666666666666667
Ni 0.666666666666667	0.5	0.833333333333333
Ni 0.666666666666667	0.333333333333333	0.666666666666667
Ni 0.666666666666667	0.833333333333333	0.833333333333333
Ni 0.666666666666667	0.666666666666667	0.666666666666667
C 0.151627	0.206829	0.136943
C 0.181706333333333	0.040162333333333	0.029723666666667
C 0.151627	0.293171	0.303609666666667
C 0.151627	0.540162333333333	0.136943
C 0.181706333333333	0.373495666666667	0.029723666666667
C 0.181706333333333	0.459837666666667	0.196390333333333
C 0.151627	0.626504333333333	0.303609666666667
C 0.151627	0.873495666666667	0.136943
C 0.181706333333333	0.706829	0.029723666666667
C 0.181706333333333	0.793171	0.196390333333333
C 0.151627	0.959837666666667	0.303609666666667
C 0.484960333333333	0.206829	0.136943
C 0.515039666666667	0.040162333333333	0.029723666666667
C 0.515039666666667	0.126504333333333	0.196390333333333
C 0.484960333333333	0.293171	0.303609666666667
C 0.484960333333333	0.540162333333333	0.136943
C 0.515039666666667	0.373495666666667	0.029723666666667
C 0.515039666666667	0.459837666666667	0.196390333333333
C 0.484960333333333	0.626504333333333	0.303609666666667
C 0.484960333333333	0.873495666666667	0.136943
C 0.515039666666667	0.706829	0.029723666666667
C 0.515039666666667	0.793171	0.196390333333333
C 0.484960333333333	0.959837666666667	0.303609666666667
C 0.818293666666667	0.206829	0.136943
C 0.848373	0.040162333333333	0.029723666666667
C 0.848373	0.126504333333333	0.196390333333333
C 0.818293666666667	0.293171	0.303609666666667
C 0.818293666666667	0.540162333333333	0.136943
C 0.848373	0.373495666666667	0.029723666666667
C 0.848373	0.459837666666667	0.196390333333333
C 0.818293666666667	0.626504333333333	0.303609666666667
C 0.818293666666667	0.873495666666667	0.136943
C 0.848373	0.706829	0.029723666666667
C 0.848373	0.793171	0.196390333333333
C 0.818293666666667	0.959837666666667	0.303609666666667
C 0.151627	0.206829	0.470276333333333
C 0.181706333333333	0.040162333333333	0.363057
C 0.181706333333333	0.126504333333333	0.529723666666667
C 0.151627	0.293171	0.636943
C 0.151627	0.540162333333333	0.470276333333333
C 0.181706333333333	0.373495666666667	0.363057
C 0.181706333333333	0.459837666666667	0.529723666666667
C 0.151627	0.626504333333333	0.636943
C 0.151627	0.873495666666667	0.470276333333333
C 0.181706333333333	0.706829	0.363057
C 0.181706333333333	0.793171	0.529723666666667
C 0.151627	0.959837666666667	0.636943
C 0.484960333333333	0.206829	0.470276333333333
C 0.515039666666667	0.040162333333333	0.363057
C 0.515039666666667	0.126504333333333	0.529723666666667
C 0.484960333333333	0.293171	0.636943
C 0.484960333333333	0.540162333333333	0.470276333333333
C 0.515039666666667	0.373495666666667	0.363057
C 0.515039666666667	0.459837666666667	0.529723666666667
C 0.484960333333333	0.626504333333333	0.636943
C 0.484960333333333	0.873495666666667	0.470276333333333
C 0.515039666666667	0.706829	0.363057
C 0.515039666666667	0.793171	0.529723666666667
C 0.484960333333333	0.959837666666667	0.636943
C 0.818293666666667	0.206829	0.470276333333333
C 0.848373	0.040162333333333	0.363057
C 0.848373	0.126504333333333	0.529723666666667
C 0.818293666666667	0.293171	0.636943
C 0.818293666666667	0.540162333333333	0.470276333333333
C 0.848373	0.373495666666667	0.363057
C 0.848373	0.459837666666667	0.529723666666667
C 0.818293666666667	0.626504333333333	0.636943
C 0.818293666666667	0.873495666666667	0.470276333333333
C 0.848373	0.706829	0.363057
C 0.848373	0.793171	0.529723666666667
C 0.818293666666667	0.959837666666667	0.636943
C 0.151627	0.206829	0.803609666666667
C 0.181706333333333	0.040162333333333	0.696390333333333
C 0.181706333333333	0.126504333333333	0.863057
C 0.151627	0.293171	0.970276333333333
C 0.151627	0.540162333333333	0.803609666666667
C 0.181706333333333	0.373495666666667	0.696390333333333
C 0.181706333333333	0.459837666666667	0.863057
C 0.151627	0.626504333333333	0.970276333333333
C 0.151627	0.873495666666667	0.803609666666667
C 0.181706333333333	0.706829	0.696390333333333
C 0.181706333333333	0.793171	0.863057
C 0.151627	0.959837666666667	0.970276333333333
C 0.484960333333333	0.206829	0.803609666666667
C 0.515039666666667	0.040162333333333	0.696390333333333
C 0.515039666666667	0.126504333333333	0.863057
C 0.484960333333333	0.293171	0.970276333333333
C 0.484960333333333	0.540162333333333	0.803609666666667
C 0.515039666666667	0.373495666666667	0.696390333333333
C 0.515039666666667	0.459837666666667	0.863057
C 0.484960333333333	0.626504333333333	0.970276333333333
C 0.484960333333333	0.873495666666667	0.803609666666667
C 0.515039666666667	0.706829	0.696390333333333
C 0.515039666666667	0.793171	0.863057
C 0.484960333333333	0.959837666666667	0.970276333333333
C 0.818293666666667	0.206829	0.803609666666667
C 0.848373	0.040162333333333	0.696390333333333
C 0.848373	0.126504333333333	0.863057
C 0.818293666666667	0.293171	0.970276333333333
C 0.818293666666667	0.540162333333333	0.803609666666667
C 0.848373	0.373495666666667	0.696390333333333
C 0.848373	0.459837666666667	0.863057
C 0.818293666666667	0.626504333333333	0.970276333333333
C 0.818293666666667	0.873495666666667	0.803609666666667
C 0.848373	0.706829	0.696390333333333
C 0.848373	0.793171	0.863057
C 0.818293666666667	0.959837666666667	0.970276333333333
O 0.267054666666667	0.097518	0.226186
O 0.066278666666667	0.264184666666667	0.273814
O 0.066278666666667	0.235815333333333	0.107147333333333
O 0.267054666666667	0.069148666666667	0.059519333333333
O 0.214143	0.238558666666667	0.122093
O 0.119190333333333	0.071892	0.044573666666667
O 0.119190333333333	0.094774666666667	0.211240333333333
O 0.214143	0.261441333333333	0.288759666666667
O 0.267054666666667	0.430851333333333	0.226186
O 0.066278666666667	0.597518	0.273814
O 0.066278666666667	0.569148666666667	0.107147333333333
O 0.267054666666667	0.402482	0.059519333333333
O 0.214143	0.571892	0.122093
O 0.119190333333333	0.405225333333333	0.044573666666667
O 0.119190333333333	0.428108	0.211240333333333
O 0.214143	0.594774666666667	0.288759666666667
O 0.267054666666667	0.764184666666667	0.226186
O 0.066278666666667	0.930851333333333	0.273814
O 0.066278666666667	0.902482	0.107147333333333
O 0.267054666666667	0.735815333333333	0.059519333333333
O 0.214143	0.905225333333333	0.122093
O 0.119190333333333	0.738558666666667	0.044573666666667
O 0.119190333333333	0.761441333333333	0.211240333333333
O 0.214143	0.928108	0.288759666666667
O 0.600388	0.097518	0.226186
O 0.399612	0.264184666666667	0.273814
O 0.399612	0.235815333333333	0.107147333333333
O 0.600388	0.069148666666667	0.059519333333333
O 0.547476333333333	0.238558666666667	0.122093
O 0.452523666666667	0.071892	0.044573666666667
O 0.452523666666667	0.094774666666667	0.211240333333333
O 0.547476333333333	0.261441333333333	0.288759666666667
O 0.600388	0.430851333333333	0.226186
O 0.399612	0.597518	0.273814
O 0.399612	0.569148666666667	0.107147333333333
O 0.600388	0.402482	0.059519333333333
O 0.547476333333333	0.571892	0.122093
O 0.452523666666667	0.405225333333333	0.044573666666667
O 0.452523666666667	0.428108	0.211240333333333
O 0.547476333333333	0.594774666666667	0.288759666666667
O 0.600388	0.764184666666667	0.226186
O 0.399612	0.930851333333333	0.273814
O 0.399612	0.902482	0.107147333333333
O 0.600388	0.735815333333333	0.059519333333333
O 0.547476333333333	0.905225333333333	0.122093
O 0.452523666666667	0.738558666666667	0.044573666666667
O 0.452523666666667	0.761441333333333	0.211240333333333
O 0.547476333333333	0.928108	0.288759666666667
O 0.933721333333333	0.097518	0.226186
O 0.732945333333333	0.264184666666667	0.273814
O 0.732945333333333	0.235815333333333	0.107147333333333
O 0.933721333333333	0.069148666666667	0.059519333333333
O 0.880809666666667	0.238558666666667	0.122093
O 0.785857	0.071892	0.044573666666667
O 0.785857	0.094774666666667	0.211240333333333
O 0.880809666666667	0.261441333333333	0.288759666666667
O 0.933721333333333	0.430851333333333	0.226186
O 0.732945333333333	0.597518	0.273814
O 0.732945333333333	0.569148666666667	0.107147333333333
O 0.933721333333333	0.402482	0.059519333333333
O 0.880809666666667	0.571892	0.122093
O 0.785857	0.405225333333333	0.044573666666667
O 0.785857	0.428108	0.211240333333333
O 0.880809666666667	0.594774666666667	0.288759666666667
O 0.933721333333333	0.764184666666667	0.226186
O 0.732945333333333	0.930851333333333	0.273814
O 0.732945333333333	0.902482	0.107147333333333
O 0.933721333333333	0.735815333333333	0.059519333333333
O 0.880809666666667	0.905225333333333	0.122093
O 0.785857	0.738558666666667	0.044573666666667
O 0.785857	0.761441333333333	0.211240333333333
O 0.880809666666667	0.928108	0.288759666666667
O 0.267054666666667	0.097518	0.559519333333333
O 0.066278666666667	0.264184666666667	0.607147333333333
O 0.066278666666667	0.235815333333333	0.440480666666667
O 0.267054666666667	0.069148666666667	0.392852666666667
O 0.214143	0.238558666666667	0.455426333333333
O 0.119190333333333	0.071892	0.377907
O 0.119190333333333	0.094774666666667	0.544573666666667
O 0.214143	0.261441333333333	0.622093
O 0.267054666666667	0.430851333333333	0.559519333333333
O 0.066278666666667	0.597518	0.607147333333333
O 0.066278666666667	0.569148666666667	0.440480666666667
O 0.267054666666667	0.402482	0.392852666666667
O 0.214143	0.571892	0.455426333333333
O 0.119190333333333	0.405225333333333	0.377907
O 0.119190333333333	0.428108	0.544573666666667
O 0.214143	0.594774666666667	0.622093
O 0.267054666666667	0.764184666666667	0.559519333333333
O 0.066278666666667	0.930851333333333	0.607147333333333
O 0.066278666666667	0.902482	0.440480666666667
O 0.267054666666667	0.735815333333333	0.392852666666667
O 0.214143	0.905225333333333	0.455426333333333
O 0.119190333333333	0.738558666666667	0.377907
O 0.119190333333333	0.761441333333333	0.544573666666667
O 0.214143	0.928108	0.622093
O 0.600388	0.097518	0.559519333333333
O 0.399612	0.264184666666667	0.607147333333333
O 0.399612	0.235815333333333	0.440480666666667
O 0.600388	0.069148666666667	0.392852666666667
O 0.547476333333333	0.238558666666667	0.455426333333333
O 0.452523666666667	0.071892	0.377907
O 0.452523666666667	0.094774666666667	0.544573666666667
O 0.547476333333333	0.261441333333333	0.622093
O 0.600388	0.430851333333333	0.559519333333333
O 0.399612	0.597518	0.607147333333333
O 0.399612	0.569148666666667	0.440480666666667
O 0.600388	0.402482	0.392852666666667
O 0.547476333333333	0.571892	0.455426333333333
O 0.452523666666667	0.405225333333333	0.377907
O 0.452523666666667	0.428108	0.544573666666667
O 0.547476333333333	0.594774666666667	0.622093
O 0.600388	0.764184666666667	0.559519333333333
O 0.399612	0.930851333333333	0.607147333333333
O 0.399612	0.902482	0.440480666666667
O 0.600388	0.735815333333333	0.392852666666667
O 0.547476333333333	0.905225333333333	0.455426333333333
O 0.452523666666667	0.738558666666667	0.377907
O 0.452523666666667	0.761441333333333	0.544573666666667
O 0.547476333333333	0.928108	0.622093
O 0.933721333333333	0.097518	0.559519333333333
O 0.732945333333333	0.264184666666667	0.607147333333333
O 0.732945333333333	0.235815333333333	0.440480666666667
O 0.933721333333333	0.069148666666667	0.392852666666667
O 0.880809666666667	0.238558666666667	0.455426333333333
O 0.785857	0.071892	0.377907
O 0.785857	0.094774666666667	0.544573666666667
O 0.880809666666667	0.261441333333333	0.622093
O 0.933721333333333	0.430851333333333	0.559519333333333
O 0.732945333333333	0.597518	0.607147333333333
O 0.732945333333333	0.569148666666667	0.440480666666667
O 0.933721333333333	0.402482	0.392852666666667
O 0.880809666666667	0.571892	0.455426333333333
O 0.785857	0.405225333333333	0.377907
O 0.785857	0.428108	0.544573666666667
O 0.880809666666667	0.594774666666667	0.622093
O 0.933721333333333	0.764184666666667	0.559519333333333
O 0.732945333333333	0.930851333333333	0.607147333333333
O 0.732945333333333	0.902482	0.440480666666667
O 0.933721333333333	0.735815333333333	0.392852666666667
O 0.880809666666667	0.905225333333333	0.455426333333333
O 0.785857	0.738558666666667	0.377907
O 0.785857	0.761441333333333	0.544573666666667
O 0.880809666666667	0.928108	0.622093
O 0.267054666666667	0.097518	0.892852666666667
O 0.066278666666667	0.264184666666667	0.940480666666667
O 0.066278666666667	0.235815333333333	0.773814
O 0.267054666666667	0.069148666666667	0.726186
O 0.214143	0.238558666666667	0.788759666666667
O 0.119190333333333	0.071892	0.711240333333333
O 0.119190333333333	0.094774666666667	0.877907
O 0.214143	0.261441333333333	0.955426333333333
O 0.267054666666667	0.430851333333333	0.892852666666667
O 0.066278666666667	0.597518	0.940480666666667
O 0.066278666666667	0.569148666666667	0.773814
O 0.267054666666667	0.402482	0.726186
O 0.214143	0.571892	0.788759666666667
O 0.119190333333333	0.405225333333333	0.711240333333333
O 0.119190333333333	0.428108	0.877907
O 0.214143	0.594774666666667	0.955426333333333
O 0.267054666666667	0.764184666666667	0.892852666666667
O 0.066278666666667	0.930851333333333	0.940480666666667
O 0.066278666666667	0.902482	0.773814
O 0.267054666666667	0.735815333333333	0.726186
O 0.214143	0.905225333333333	0.788759666666667
O 0.119190333333333	0.738558666666667	0.711240333333333
O 0.119190333333333	0.761441333333333	0.877907
O 0.214143	0.928108	0.955426333333333
O 0.600388	0.097518	0.892852666666667
O 0.399612	0.264184666666667	0.940480666666667
O 0.399612	0.235815333333333	0.773814
O 0.600388	0.069148666666667	0.726186
O 0.547476333333333	0.238558666666667	0.788759666666667
O 0.452523666666667	0.071892	0.711240333333333
O 0.452523666666667	0.094774666666667	0.877907
O 0.547476333333333	0.261441333333333	0.955426333333333
O 0.600388	0.430851333333333	0.892852666666667
O 0.399612	0.597518	0.940480666666667
O 0.399612	0.569148666666667	0.773814
O 0.600388	0.402482	0.726186
O 0.547476333333333	0.571892	0.788759666666667
O 0.452523666666667	0.405225333333333	0.711240333333333
O 0.452523666666667	0.428108	0.877907
O 0.547476333333333	0.594774666666667	0.955426333333333
O 0.600388	0.764184666666667	0.892852666666667
O 0.399612	0.930851333333333	0.940480666666667
O 0.399612	0.902482	0.773814
O 0.600388	0.735815333333333	0.726186
O 0.547476333333333	0.905225333333333	0.788759666666667
O 0.452523666666667	0.738558666666667	0.711240333333333
O 0.452523666666667	0.761441333333333	0.877907
O 0.547476333333333	0.928108	0.955426333333333
O 0.933721333333333	0.097518	0.892852666666667
O 0.732945333333333	0.264184666666667	0.940480666666667
O 0.732945333333333	0.235815333333333	0.773814
O 0.933721333333333	0.069148666666667	0.726186
O 0.880809666666667	0.238558666666667	0.788759666666667
O 0.785857	0.071892	0.711240333333333
O 0.785857	0.094774666666667	0.877907
O 0.880809666666667	0.261441333333333	0.955426333333333
O 0.933721333333333	0.430851333333333	0.892852666666667
O 0.732945333333333	0.597518	0.940480666666667
O 0.732945333333333	0.569148666666667	0.773814
O 0.933721333333333	0.402482	0.726186
O 0.880809666666667	0.571892	0.788759666666667
O 0.785857	0.405225333333333	0.711240333333333
O 0.785857	0.428108	0.877907
O 0.880809666666667	0.594774666666667	0.955426333333333
O 0.933721333333333	0.764184666666667	0.892852666666667
O 0.732945333333333	0.930851333333333	0.940480666666667
O 0.732945333333333	0.902482	0.773814
O 0.933721333333333	0.735815333333333	0.726186
O 0.880809666666667	0.905225333333333	0.788759666666667
O 0.785857	0.761441333333333	0.877907
O 0.880809666666667	0.928108	0.955426333333333
K_POINTS gamma