&CONTROL
  calculation='scf',
  prefix='calc',
  pseudo_dir='../.',
  outdir='.',
  tprnfor=.true.,
  verbosity='high',
/
&SYSTEM
  ibrav=0,
  celldm(1)=1.0,
  nat=24,
  ntyp=1,
  ecutwfc=200,
  occupations='smearing',
  smearing='fermi-dirac',
  degauss=0.002,
  input_dft='vdw-df',
  nbnd=62,
  nosym=.true.,
/
&ELECTRONS
  diagonalization='david',
  electron_maxstep=500,
  startingwfc='random',
/
&IONS
/
&CELL
/
CELL_PARAMETERS alat
    29.6873747372201     0.000000000000000d0     0.000000000000000d0
    0.000000000000000d0     16.0     0.000000000000000d0
    0.000000000000000d0     0.000000000000000d0    4.647785137
ATOMIC_SPECIES
C 12.00d00 06_C_4_1.2_1.2_pbe_n_v1.0.upf
ATOMIC_POSITIONS bohr
C 11.8436873686101 8 0
C 10.9444353498103 10.4706746160512 0
C 6.07815631569498 11.3287309054217 0
C 4.38811534310913 9.31461850471107 0
C 6.07815631569497 4.67126909457834 0
C 8.66744930708053 4.21470687923773 0
C 9.92184368430502 11.3287309054217 2.3238925685
C 7.33255069291947 11.7852931207623 2.3238925685
C 4.15631263138995 8 2.3238925685
C 5.05556465018966 5.52932538394881 2.3238925685
C 9.92184368430502 4.67126909457833 2.3238925685
C 11.6118846568909 6.68538149528893 2.3238925685
C 25.5310621086101 8 0
C 24.6318100898103 10.4706746160512 0
C 19.765531055695 11.3287309054217 0
C 18.0754900831091 9.31461850471107 0
C 19.765531055695 4.67126909457834 0
C 22.3548240470805 4.21470687923773 0
C 23.609218424305 11.3287309054217 2.3238925685
C 21.0199254329195 11.7852931207623 2.3238925685
C 17.84368737139 8 2.3238925685
C 18.7429393901897 5.52932538394881 2.3238925685
C 23.609218424305 4.67126909457833 2.3238925685
C 25.2992593968909 6.68538149528893 2.3238925685
K_POINTS automatic
1 1 10 0 0 1