&CONTROL
  calculation='scf',
  prefix='calc',
  pseudo_dir='../.',
  outdir='.',
  tprnfor=.true.,
  verbosity='high',
/
&SYSTEM
  ibrav=0,
  celldm(1)=1,
  nspin=2,
  nat=254,
  ntyp=1,
  ecutwfc=80,
  occupations='smearing',
  smearing='fermi-dirac',
  degauss=0.002,
  input_dft='vdw-df',
  nbnd=614,
  nosym=.true.,
  starting_magnetization(1) = 1.0
/
&ELECTRONS
  conv_thr=0.1,
  diagonalization='david',
  electron_maxstep=500,
  startingwfc='random',
  mixing_mode='TF',
  mixing_beta=0.5
/
&IONS
/
&CELL
/
CELL_PARAMETERS alat
 37.29563211 0 0
 0 32.2989648 0
 0 0 30
ATOMIC_SPECIES
C 12.00d00 06_C_4_1.2_1.2_pbe_n_v1.0.upf
ATOMIC_POSITIONS crystal
C 0	0	0.600000000000000
C 0	0.0833325000000000	0.600000000000000
C 0.0625000000000000	0.125000000000000	0.600000000000000
C 0.0625000000000000	0.0416650000000000	0.400000000000000
C 0.0625000000000000	0.125000000000000	0.400000000000000
C 0.125000000000000	0.166665000000000	0.400000000000000
C 0.125000000000000	0.250000000000000	0.400000000000000
C 0	0.250000000000000	0.600000000000000
C 0	0.333332500000000	0.600000000000000
C 0.0625000000000000	0.375000000000000	0.600000000000000
C 0.0625000000000000	0.466665000000000	0.600000000000000
C 0.0625000000000000	0.291665000000000	0.400000000000000
C 0.0625000000000000	0.375000000000000	0.400000000000000
C 0.125000000000000	0.416665000000000	0.400000000000000
C 0.125000000000000	0.500000000000000	0.400000000000000
C 0	0.500000000000000	0.600000000000000
C 0	0.583332500000000	0.600000000000000
C 0.0625000000000000	0.625000000000000	0.600000000000000
C 0.0625000000000000	0.716665000000000	0.600000000000000
C 0.0625000000000000	0.541665000000000	0.400000000000000
C 0.0625000000000000	0.625000000000000	0.400000000000000
C 0.125000000000000	0.666665000000000	0.400000000000000
C 0.125000000000000	0.750000000000000	0.400000000000000
C 0	0.750000000000000	0.600000000000000
C 0	0.833332500000000	0.600000000000000
C 0.0625000000000000	0.875000000000000	0.600000000000000
C 0.0625000000000000	0.966665000000000	0.600000000000000
C 0.0625000000000000	0.791665000000000	0.400000000000000
C 0.0625000000000000	0.875000000000000	0.400000000000000
C 0.125000000000000	0.916665000000000	0.400000000000000
C 0.125000000000000	1	0.400000000000000
C 0.125000000000000	0	0.600000000000000
C 0.125000000000000	0.0833325000000000	0.600000000000000
C 0.187500000000000	0.125000000000000	0.600000000000000
C 0.187500000000000	0.216665000000000	0.600000000000000
C 0.187500000000000	0.0416650000000000	0.400000000000000
C 0.187500000000000	0.125000000000000	0.400000000000000
C 0.250000000000000	0.166665000000000	0.400000000000000
C 0.250000000000000	0.250000000000000	0.400000000000000
C 0.125000000000000	0.250000000000000	0.600000000000000
C 0.125000000000000	0.333332500000000	0.600000000000000
C 0.187500000000000	0.375000000000000	0.600000000000000
C 0.187500000000000	0.466665000000000	0.600000000000000
C 0.187500000000000	0.291665000000000	0.400000000000000
C 0.187500000000000	0.375000000000000	0.400000000000000
C 0.250000000000000	0.416665000000000	0.400000000000000
C 0.250000000000000	0.500000000000000	0.400000000000000
C 0.125000000000000	0.500000000000000	0.600000000000000
C 0.125000000000000	0.583332500000000	0.600000000000000
C 0.187500000000000	0.625000000000000	0.600000000000000
C 0.187500000000000	0.716665000000000	0.600000000000000
C 0.187500000000000	0.541665000000000	0.400000000000000
C 0.187500000000000	0.625000000000000	0.400000000000000
C 0.250000000000000	0.666665000000000	0.400000000000000
C 0.250000000000000	0.750000000000000	0.400000000000000
C 0.125000000000000	0.750000000000000	0.600000000000000
C 0.125000000000000	0.833332500000000	0.600000000000000
C 0.187500000000000	0.875000000000000	0.600000000000000
C 0.187500000000000	0.966665000000000	0.600000000000000
C 0.187500000000000	0.791665000000000	0.400000000000000
C 0.187500000000000	0.875000000000000	0.400000000000000
C 0.250000000000000	0.916665000000000	0.400000000000000
C 0.250000000000000	1	0.400000000000000
C 0.250000000000000	0	0.600000000000000
C 0.250000000000000	0.0833325000000000	0.600000000000000
C 0.312500000000000	0.125000000000000	0.600000000000000
C 0.312500000000000	0.216665000000000	0.600000000000000
C 0.312500000000000	0.0416650000000000	0.400000000000000
C 0.312500000000000	0.125000000000000	0.400000000000000
C 0.375000000000000	0.166665000000000	0.400000000000000
C 0.375000000000000	0.250000000000000	0.400000000000000
C 0.250000000000000	0.250000000000000	0.600000000000000
C 0.250000000000000	0.333332500000000	0.600000000000000
C 0.312500000000000	0.375000000000000	0.600000000000000
C 0.312500000000000	0.466665000000000	0.600000000000000
C 0.312500000000000	0.291665000000000	0.400000000000000
C 0.312500000000000	0.375000000000000	0.400000000000000
C 0.375000000000000	0.416665000000000	0.400000000000000
C 0.375000000000000	0.500000000000000	0.400000000000000
C 0.250000000000000	0.500000000000000	0.600000000000000
C 0.250000000000000	0.583332500000000	0.600000000000000
C 0.312500000000000	0.625000000000000	0.600000000000000
C 0.312500000000000	0.716665000000000	0.600000000000000
C 0.312500000000000	0.541665000000000	0.400000000000000
C 0.312500000000000	0.625000000000000	0.400000000000000
C 0.375000000000000	0.666665000000000	0.400000000000000
C 0.375000000000000	0.750000000000000	0.400000000000000
C 0.250000000000000	0.750000000000000	0.600000000000000
C 0.250000000000000	0.833332500000000	0.600000000000000
C 0.312500000000000	0.875000000000000	0.600000000000000
C 0.312500000000000	0.966665000000000	0.600000000000000
C 0.312500000000000	0.791665000000000	0.400000000000000
C 0.312500000000000	0.875000000000000	0.400000000000000
C 0.375000000000000	0.916665000000000	0.400000000000000
C 0.375000000000000	1	0.400000000000000
C 0.375000000000000	0	0.600000000000000
C 0.375000000000000	0.0833325000000000	0.600000000000000
C 0.437500000000000	0.125000000000000	0.600000000000000
C 0.437500000000000	0.216665000000000	0.600000000000000
C 0.437500000000000	0.0416650000000000	0.400000000000000
C 0.437500000000000	0.125000000000000	0.400000000000000
C 0.500000000000000	0.166665000000000	0.400000000000000
C 0.500000000000000	0.250000000000000	0.400000000000000
C 0.375000000000000	0.250000000000000	0.600000000000000
C 0.375000000000000	0.333332500000000	0.600000000000000
C 0.437500000000000	0.375000000000000	0.600000000000000
C 0.437500000000000	0.466665000000000	0.600000000000000
C 0.437500000000000	0.291665000000000	0.400000000000000
C 0.437500000000000	0.375000000000000	0.400000000000000
C 0.500000000000000	0.416665000000000	0.400000000000000
C 0.500000000000000	0.500000000000000	0.400000000000000
C 0.375000000000000	0.500000000000000	0.600000000000000
C 0.375000000000000	0.583332500000000	0.600000000000000
C 0.437500000000000	0.625000000000000	0.600000000000000
C 0.437500000000000	0.716665000000000	0.600000000000000
C 0.437500000000000	0.541665000000000	0.400000000000000
C 0.437500000000000	0.625000000000000	0.400000000000000
C 0.500000000000000	0.666665000000000	0.400000000000000
C 0.500000000000000	0.750000000000000	0.400000000000000
C 0.375000000000000	0.750000000000000	0.600000000000000
C 0.375000000000000	0.833332500000000	0.600000000000000
C 0.437500000000000	0.875000000000000	0.600000000000000
C 0.437500000000000	0.966665000000000	0.600000000000000
C 0.437500000000000	0.791665000000000	0.400000000000000
C 0.437500000000000	0.875000000000000	0.400000000000000
C 0.500000000000000	0.916665000000000	0.400000000000000
C 0.500000000000000	1	0.400000000000000
C 0.500000000000000	0	0.600000000000000
C 0.500000000000000	0.0833325000000000	0.600000000000000
C 0.562500000000000	0.125000000000000	0.600000000000000
C 0.562500000000000	0.216665000000000	0.600000000000000
C 0.562500000000000	0.0416650000000000	0.400000000000000
C 0.562500000000000	0.125000000000000	0.400000000000000
C 0.625000000000000	0.166665000000000	0.400000000000000
C 0.625000000000000	0.250000000000000	0.400000000000000
C 0.500000000000000	0.250000000000000	0.600000000000000
C 0.500000000000000	0.333332500000000	0.600000000000000
C 0.562500000000000	0.375000000000000	0.600000000000000
C 0.562500000000000	0.466665000000000	0.600000000000000
C 0.562500000000000	0.291665000000000	0.400000000000000
C 0.562500000000000	0.375000000000000	0.400000000000000
C 0.625000000000000	0.416665000000000	0.400000000000000
C 0.625000000000000	0.500000000000000	0.400000000000000
C 0.500000000000000	0.500000000000000	0.600000000000000
C 0.500000000000000	0.583332500000000	0.600000000000000
C 0.562500000000000	0.625000000000000	0.600000000000000
C 0.562500000000000	0.716665000000000	0.600000000000000
C 0.562500000000000	0.541665000000000	0.400000000000000
C 0.562500000000000	0.625000000000000	0.400000000000000
C 0.625000000000000	0.666665000000000	0.400000000000000
C 0.625000000000000	0.750000000000000	0.400000000000000
C 0.500000000000000	0.750000000000000	0.600000000000000
C 0.500000000000000	0.833332500000000	0.600000000000000
C 0.562500000000000	0.875000000000000	0.600000000000000
C 0.562500000000000	0.966665000000000	0.600000000000000
C 0.562500000000000	0.791665000000000	0.400000000000000
C 0.562500000000000	0.875000000000000	0.400000000000000
C 0.625000000000000	0.916665000000000	0.400000000000000
C 0.625000000000000	1	0.400000000000000
C 0.625000000000000	0	0.600000000000000
C 0.625000000000000	0.0833325000000000	0.600000000000000
C 0.687500000000000	0.125000000000000	0.600000000000000
C 0.687500000000000	0.216665000000000	0.600000000000000
C 0.687500000000000	0.0416650000000000	0.400000000000000
C 0.687500000000000	0.125000000000000	0.400000000000000
C 0.750000000000000	0.166665000000000	0.400000000000000
C 0.750000000000000	0.250000000000000	0.400000000000000
C 0.625000000000000	0.250000000000000	0.600000000000000
C 0.625000000000000	0.333332500000000	0.600000000000000
C 0.687500000000000	0.375000000000000	0.600000000000000
C 0.687500000000000	0.466665000000000	0.600000000000000
C 0.687500000000000	0.291665000000000	0.400000000000000
C 0.687500000000000	0.375000000000000	0.400000000000000
C 0.750000000000000	0.416665000000000	0.400000000000000
C 0.750000000000000	0.500000000000000	0.400000000000000
C 0.625000000000000	0.500000000000000	0.600000000000000
C 0.625000000000000	0.583332500000000	0.600000000000000
C 0.687500000000000	0.625000000000000	0.600000000000000
C 0.687500000000000	0.716665000000000	0.600000000000000
C 0.687500000000000	0.541665000000000	0.400000000000000
C 0.687500000000000	0.625000000000000	0.400000000000000
C 0.750000000000000	0.666665000000000	0.400000000000000
C 0.750000000000000	0.750000000000000	0.400000000000000
C 0.625000000000000	0.750000000000000	0.600000000000000
C 0.625000000000000	0.833332500000000	0.600000000000000
C 0.687500000000000	0.875000000000000	0.600000000000000
C 0.687500000000000	0.966665000000000	0.600000000000000
C 0.687500000000000	0.791665000000000	0.400000000000000
C 0.687500000000000	0.875000000000000	0.400000000000000
C 0.750000000000000	0.916665000000000	0.400000000000000
C 0.750000000000000	1	0.400000000000000
C 0.750000000000000	0	0.600000000000000
C 0.750000000000000	0.0833325000000000	0.600000000000000
C 0.812500000000000	0.125000000000000	0.600000000000000
C 0.812500000000000	0.216665000000000	0.600000000000000
C 0.812500000000000	0.0416650000000000	0.400000000000000
C 0.812500000000000	0.125000000000000	0.400000000000000
C 0.875000000000000	0.166665000000000	0.400000000000000
C 0.875000000000000	0.250000000000000	0.400000000000000
C 0.750000000000000	0.250000000000000	0.600000000000000
C 0.750000000000000	0.333332500000000	0.600000000000000
C 0.812500000000000	0.375000000000000	0.600000000000000
C 0.812500000000000	0.466665000000000	0.600000000000000
C 0.812500000000000	0.291665000000000	0.400000000000000
C 0.812500000000000	0.375000000000000	0.400000000000000
C 0.875000000000000	0.416665000000000	0.400000000000000
C 0.875000000000000	0.500000000000000	0.400000000000000
C 0.750000000000000	0.500000000000000	0.600000000000000
C 0.750000000000000	0.583332500000000	0.600000000000000
C 0.812500000000000	0.625000000000000	0.600000000000000
C 0.812500000000000	0.716665000000000	0.600000000000000
C 0.812500000000000	0.541665000000000	0.400000000000000
C 0.812500000000000	0.625000000000000	0.400000000000000
C 0.875000000000000	0.666665000000000	0.400000000000000
C 0.875000000000000	0.750000000000000	0.400000000000000
C 0.750000000000000	0.750000000000000	0.600000000000000
C 0.750000000000000	0.833332500000000	0.600000000000000
C 0.812500000000000	0.875000000000000	0.600000000000000
C 0.812500000000000	0.966665000000000	0.600000000000000
C 0.812500000000000	0.791665000000000	0.400000000000000
C 0.812500000000000	0.875000000000000	0.400000000000000
C 0.875000000000000	0.916665000000000	0.400000000000000
C 0.875000000000000	1	0.400000000000000
C 0.875000000000000	0	0.600000000000000
C 0.875000000000000	0.0833325000000000	0.600000000000000
C 0.937500000000000	0.125000000000000	0.600000000000000
C 0.937500000000000	0.216665000000000	0.600000000000000
C 0.937500000000000	0.0416650000000000	0.400000000000000
C 0.937500000000000	0.125000000000000	0.400000000000000
C 1	0.166665000000000	0.400000000000000
C 1	0.250000000000000	0.400000000000000
C 0.875000000000000	0.250000000000000	0.600000000000000
C 0.875000000000000	0.333332500000000	0.600000000000000
C 0.937500000000000	0.375000000000000	0.600000000000000
C 0.937500000000000	0.466665000000000	0.600000000000000
C 0.937500000000000	0.291665000000000	0.400000000000000
C 0.937500000000000	0.375000000000000	0.400000000000000
C 1	0.416665000000000	0.400000000000000
C 1	0.500000000000000	0.400000000000000
C 0.875000000000000	0.500000000000000	0.600000000000000
C 0.875000000000000	0.583332500000000	0.600000000000000
C 0.937500000000000	0.625000000000000	0.600000000000000
C 0.937500000000000	0.716665000000000	0.600000000000000
C 0.937500000000000	0.541665000000000	0.400000000000000
C 0.937500000000000	0.625000000000000	0.400000000000000
C 1	0.666665000000000	0.400000000000000
C 1	0.750000000000000	0.400000000000000
C 0.875000000000000	0.750000000000000	0.600000000000000
C 0.875000000000000	0.833332500000000	0.600000000000000
C 0.937500000000000	0.875000000000000	0.600000000000000
C 0.937500000000000	0.966665000000000	0.600000000000000
C 0.937500000000000	0.875000000000000	0.400000000000000
C 1	0.916665000000000	0.400000000000000
C 1	1	0.400000000000000
K_POINTS gamma