&CONTROL
  calculation='scf',
  prefix='calc',
  pseudo_dir='.',
  outdir='.',
  tprnfor=.true.,
  etot_conv_thr=1d-5,
  verbosity='high',
  tstress=.true.
/
&SYSTEM
  ibrav=0,
  celldm(1)=1.0,
  nspin=1,
  nat=60,
  ntyp=1,
  ecutwfc=250d00,
  occupations='smearing',
  smearing='fermi-dirac',
  degauss=0.002,
  input_dft='pbe',
  vdw_corr='grimme-d3',
  dftd3_threebody=.true.,
  nbnd=149,
  nosym=.true.
/
&ELECTRONS
  diagonalization='david',
  electron_maxstep=500,
  startingwfc='random',
/
CELL_PARAMETERS alat
  30.2356158176 0.0 0.0
  0.0 30.2356158176 0.0
  0.0 0.0 30.2356158176
ATOMIC_SPECIES
C 12 06_C_4_1.2_1.2_pbe_n_v1.0.upf
ATOMIC_POSITIONS bohr
C 16.4909886367721 13.2277852332198 21.3547710554088
C 17.3396626885264 15.8397323693209 21.3547710554088
C 17.7826673725819 11.4499423615008 19.996619318224
C 19.4296429401383 16.5188072930503 19.996619318224
C 19.4296429401383 18.8550037231689 18.5527703971822
C 15.1178079088    17.4540043389186 21.3547710554088
C 15.1178079088    19.6515383451717 19.996619318224
C 17.3396626885264 20.3734628056926 18.5527703971822
C 13.8261291729902 9.55991968592063 18.5527703971822
C 12.4529484450181 11.4499423615008 19.996619318224
C 16.4094866446098 9.55991968592063 18.5527703971822
C 13.7446271808279 13.2277852332198 21.3547710554088
C 12.8959531290736 15.8397323693209 21.3547710554088
C 10.2310936652917 12.1718668220217 18.5527703971822
C 9.43279214948954 14.6287865071961 18.5527703971822
C 10.8059728774617 16.5188072930503 19.996619318224
C 16.4909886367721 8.69405479684807 14.0190399608104
C 13.7446271808279 8.69405479684807 14.0190399608104
C 17.7826673725819 9.11374593138223 16.2165758567896
C 12.4529484450181 9.11374593138223 16.2165758567896
C 10.2310936652917 10.7280179009799 16.2165758567896
C 12.8959531290736 9.86215301190737 11.6828454204178
C 10.8059728774617 11.3806120944311 11.6828454204178
C 9.43279214948954 11.8267858489695 14.0190399608104
C 20.8028236681105 11.8267858489695 14.0190399608104
C 19.4296429401383 11.3806120944311 11.6828454204178
C 20.0045221523083 10.7280179009799 16.2165758567896
C 17.3396626885264 9.86215301190737 11.6828454204178
C 15.1178079088    10.5840774724283 10.238996499376
C 19.4296429401383 13.7168085245497 10.238996499376
C 17.3396626885264 14.3958834482791 8.88084476219123
C 15.1178079088    12.7816114786814 8.88084476219123
C 20.8028236681105 14.6287865071961 18.5527703971822
C 21.6514958301387 15.7968828325294 16.2165758567896
C 20.0045221523083 12.1718668220217 18.5527703971822
C 21.6514958301387 14.4387329850706 14.0190399608104
C 20.8028236681105 15.6068293104039 11.6828454204178
C 20.8028236681105 18.4088299686305 16.2165758567896
C 20.0045221523083 19.5075979166201 14.0190399608104
C 20.0045221523083 18.0637489955783 11.6828454204178
C 13.7446271808279 17.0078305843802 8.88084476219123
C 16.4909886367721 17.0078305843802 8.88084476219123
C 17.7826673725819 18.7856734560992 10.238996499376
C 12.4529484450181 18.7856734560992 10.238996499376
C 9.43279214948954 15.6068293104039 11.6828454204178
C 10.8059728774617 13.7168085245497 10.238996499376
C 12.8959531290736 14.3958834482791 8.88084476219123
C 10.2310936652917 18.0637489955783 11.6828454204178
C 9.43279214948954 18.4088299686305 16.2165758567896
C 8.58411998746126 15.7968828325294 16.2165758567896
C 8.58411998746126 14.4387329850706 14.0190399608104
C 10.2310936652917 19.5075979166201 14.0190399608104
C 13.7446271808279 21.5415610207519 16.2165758567896
C 12.8959531290736 20.3734628056926 18.5527703971822
C 10.8059728774617 18.8550037231689 18.5527703971822
C 12.4529484450181 21.1218698862178 14.0190399608104
C 16.4094866446098 20.6756961316794 11.6828454204178
C 17.7826673725819 21.1218698862178 14.0190399608104
C 16.4909886367721 21.5415610207519 16.2165758567896
C 13.8261291729902 20.6756961316794 11.6828454204178
K_POINTS automatic
1 1 1 0 0 0
