&CONTROL
  calculation='scf',
  prefix='calc',
  pseudo_dir='.',
  outdir='.',
  tprnfor=.true.,
/
&SYSTEM
  ibrav=0,
  celldm(1)=1.0,
  nat=24,
  ntyp=2,
  ecutwfc=75,
  occupations='smearing',
  smearing='gauss',
  degauss=0.003674932247495664d00,
  x_gamma_extrapolation=FALSE,
  input_dft='HSE',
  edir=3,
  emaxpos=0.0d00,
  eopreg=0.025d00,
  eamp=0.0d00,
  nosym=.true.,
  noinv=.false.,
  nosym_evc=.false.,
  no_t_rev=.false.,
/
&ELECTRONS
  electron_maxstep=750,
/
&IONS
/
&CELL
/
CELL_PARAMETERS alat
    8.761849086546469     0.000000000000000d0     0.000000000000000d0
    0.000000000000000d0     5.607557602184396     0.000000000000000d0
    0.000000000000000d0     0.000000000000000d0    52.981482549346488
ATOMIC_SPECIES
Ti1 47.867d00 22_Ti_12_2.0_2.8_pbe_n_v1.0.upf
O1 15.999d00 08_O_6_1.2_1.4_pbe_n_v1.0.upf
ATOMIC_POSITIONS {crystal}
O1   0.304957270793217     0.000000000000000     0.261026187869159  
O1   0.695042728128400     0.000000000000000     0.325534579830952  
O1   0.804957263999403     0.500000001010989     0.242846720330874  
O1   0.195042749803902     0.500000004043956     0.178338358508263  
O1   0.304957270793217     0.000000000000000     0.426401875089421  
O1   0.695042728128400     0.000000000000000     0.490910267051214  
O1   0.804957263999403     0.500000001010989     0.408222407551135  
O1   0.195042749803902     0.500000004043956     0.343714045728525  
O1   0.304957270793217     0.000000000000000     0.591777562309682  
O1   0.695042728128400     0.000000000000000     0.656285954271475  
O1   0.804957263999403     0.500000001010989     0.573598094771397  
O1   0.195042749803902     0.500000004043956     0.509089732948786  
O1   0.304957270793217     0.000000000000000     0.757153249529944  
O1   0.695042728128400     0.000000000000000     0.821661641491737  
O1   0.804957263999403     0.500000001010989     0.738973781991658  
O1   0.195042749803902     0.500000004043956     0.674465420169048  
Ti1   0.000000000000000     0.000000000000000     0.210592540436097 
Ti1   0.499999990186713     0.500000003032967     0.293280385597772 
Ti1   0.000000000000000     0.000000000000000     0.375968227656359 
Ti1   0.499999990186713     0.500000003032967     0.458656072818033 
Ti1   0.000000000000000     0.000000000000000     0.541343914876620 
Ti1   0.499999990186713     0.500000003032967     0.624031760038295 
Ti1   0.000000000000000     0.000000000000000     0.706719602096882 
Ti1   0.499999990186713     0.500000003032967     0.789407447258556 
K_POINTS automatic
6 6 1 0 0 0